Minimize
  obj: x0 + x1 + x2 + x3 + x4 + x5

Subject To
  c0: x1 + x2 + x3 + x4 = 27
  c1: x0 + x1 + x2 + x3 + x4 = 38
  c2: x2 + x3 = 14
  c3: x0 + x5 = 12
  c4: x0 + x1 + x2 + x3 + x4 = 38
  c5: x0 + x2 + x4 + x5 = 24

Bounds
  x0 >= 0
  x1 >= 0
  x2 >= 0
  x3 >= 0
  x4 >= 0
  x5 >= 0

Generals
  x0 x1 x2 x3 x4 x5

End
